StudentsNr = 10;
InstructorsNr = 4;
DaysNr = 2;
SlotsPerDay = 10;
AvailabilitySlotsLenght = 5;
RoomNr = 1;
ProgrammNr = 2;
DegreeNr = 2;
RolesNr = 4;
CoursesNr = 3;
InstructorsProgramm = [{1}, {2}, {2}, {1}];
InstructorRolesPerProgramm = [|{}, {4}, {1, 4}, {4}|{2}, {2}, {2}, {2}|];
InstructorsAvailability = [|0, 1, 1, 0, |1, 1, 1, 1, |1, 1, 1, 1, |1, 1, 1, 1|];
StudentsProgramm = [1, 1, 1, 2, 1, 1, 1, 1, 1, 2];
StudentsDegree = [1, 2, 1, 1, 2, 1, 2, 1, 1, 1];
StudentsSupervisorId = [4, 1, 1, 2, 1, 1, 4, 4, 1, 3];
StudentsCourseIds = [{1, 2, 3}, {2}, {1, 2, 3}, {1, 2, 3}, {2}, {1, 2, 3}, {1}, {1, 2, 3}, {1, 2, 3}, {1, 2, 3}];
StudentsAvailability = [|1, 1, 1, 1, |1, 1, 1, 1, |0, 1, 1, 1, |1, 1, 1, 1, |0, 0, 1, 1, |1, 1, 0, 1, |1, 1, 1, 1, |1, 1, 1, 1, |0, 1, 1, 1, |0, 1, 1, 1|];
TheoryticalMinCard = [1, 0, 1, 2, 0, 1, 1, 1, 1, 2];
CoursesInstructorIds = [{2}, {3, 4}, {1}];
RolesDemands = [1, 1, 1, 1];
RolesContinuity = [4, 2, 1];
ExamLen = [2, 2, 2, 2, 2, 2, 2, 2, 2, 2];
LunchTsMinLen = 1;
LunchStarts = [2..7, 15..17];
SupervisorAvailable = 5;
OptimalLunchLenght = [3, 1];
OptimalStartTs = [2, 1];
OptimalFinishTs = [0, 9];
MinimizeRooms = 0;
RolesSoftContinuity = [|1, 2, 3, 4|2, 1, 4, 4|];
SameDegreeInRoom = 10;
Mergeability = 0;
